%
% Generated Sudoku 25x25
% Density approximation: 0.30
%
x = array2d(1..n, 1..n, [
  10,   _,  14,   _,   _,   8,  22,   _,   _,   4,  23,  16,   _,   _,   1,   7,   _,   _,   _,   5,   _,   _,  21,  15,   _,
   _,   _,   5,   _,   4,   _,   _,   _,   6,   _,   _,   _,   _,  10,  15,   _,   _,   _,  18,   _,   _,   _,  25,   _,   _,
  11,   _,  15,  19,   _,  25,   _,   _,   1,  21,  14,   7,   _,   _,   _,   _,   _,  24,   8,   _,  23,   _,   _,   _,   _,
   _,   _,   _,   _,   _,   _,   _,  12,   _,   _,   _,   _,   _,  18,   _,   _,   _,   _,  23,  10,   _,   6,  22,   _,   _,
   _,   _,  23,   _,   _,  11,   _,   _,   _,   9,   _,   _,   _,   _,   _,  15,   _,  12,   4,   _,   _,   _,  14,   _,   _,
   6,   _,   _,   _,   _,  21,   _,   _,  13,   1,   _,   _,  23,   _,   _,   4,   _,   _,   2,   _,  18,   _,   _,   3,   _,
  22,  21,  16,   _,   _,   _,   _,   _,   _,   _,   _,   3,   _,   _,   _,   _,   _,   _,   9,   _,   _,   _,   _,   _,   _,
   _,   9,  25,   _,   _,   _,   _,   _,   3,   _,   7,   _,   4,   _,   _,  22,  24,   _,  20,   _,  12,   _,   _,   _,   2,
   _,   _,   3,   _,   _,   _,   _,   _,   _,   _,   _,   _,   _,   _,   _,   _,   _,   _,   _,   _,  20,   _,   6,   _,  11,
   _,   _,   _,   _,   _,   _,   _,  20,   _,  15,  21,   _,  12,  13,  16,   6,   _,  11,   _,   _,   _,   4,  23,   _,  25,
   _,   _,   _,   _,   _,   1,  12,   _,   _,   _,  19,   _,   _,  21,   _,   _,  14,   _,   _,   2,   _,  25,   _,   _,   _,
   _,   _,   6,  10,   _,   3,   _,   _,   8,   _,   _,   _,   _,   _,   _,   _,   9,   _,  21,   _,   _,   _,   _,   _,   _,
   _,  15,   _,   _,   _,   _,   _,  13,   9,   _,  16,   _,  22,   _,   _,   3,   _,   _,   _,   8,   1,  10,   _,  18,  21,
   _,   _,  22,   _,   _,  18,   _,   6,   _,   _,   _,   _,   _,   _,   _,   _,   7,   _,  12,   _,  13,   _,  20,   _,  24,
   1,   _,   _,   9,   _,   _,   _,  10,   _,   _,   3,   _,   _,   _,  18,   _,   _,   _,  13,   _,   _,   _,  19,   2,  16,
   _,   _,   _,   _,   _,   4,   _,   _,   _,   _,   _,  18,   _,  24,   _,   _,   _,   _,   _,  13,  25,   _,   _,  16,   _,
   _,   _,   _,   6,   _,   _,   _,   _,   5,   _,   _,   9,   _,   _,   _,  24,   _,   _,   3,   _,   4,   _,   _,  20,   _,
   _,   7,  21,   _,   5,   _,   2,   _,   _,   _,  17,   _,   1,   _,   _,   _,  12,   _,   _,   _,  15,   _,   _,   _,  14,
   _,   _,   _,   2,  14,   _,   _,   _,   _,   _,   _,   4,  20,   _,   _,   _,   _,   _,  11,   _,  10,   8,   _,   _,  19,
   _,   _,   _,   _,   _,   _,   _,   _,   _,   _,  11,   _,   _,   _,   6,  23,   _,   _,   _,   _,   _,   2,   _,   _,   _,
   _,   _,   _,   _,   _,   _,   _,   9,  21,  19,   _,   _,   _,   _,   _,   _,   _,   _,  14,   _,   _,  11,   _,   _,   _,
   _,  12,   _,  14,   _,   _,   _,   5,  10,   _,  15,   _,   _,   _,   3,  25,   4,   _,   _,   _,   _,   _,   _,   _,   _,
   _,  24,   1,   _,   _,   _,   _,   _,   _,   _,   _,   _,   _,   _,   _,  12,   _,   3,  10,   _,   _,   _,   _,   _,   _,
  15,   _,  20,  16,   _,   _,   _,  11,   _,   _,   _,   _,   _,   _,   _,   _,   _,   _,   _,   _,   _,   _,  10,   _,   _,
  25,   _,   _,  17,   _,   _,   _,   _,  12,   _,   _,   _,  10,   _,   _,   2,   _,   5,   _,   _,   _,   _,   _,  14,   4
]);

n = 25;
